Normalized Data/p02_2_normalized_split0.vrp
NAME:p02_2_NORMALIZED_split
BEST_KNOWN: 0
COMMENT: 0
DIMENSION: 302
CAPACITY: 100
EDGE_WEIGHT_FORMAT: FUNCTION
EDGE_WEIGHT_TYPE: EXACT_2D
NODE_COORD_SECTION
1 0.00000 0.00000
2 20 14
3 20 14
4 20 14
5 -33 -47
6 -33 -47
7 -33 -47
8 -34 -41
9 -34 -41
10 -34 -41
11 -34 -41
12 -34 -41
13 -20 44
14 -20 44
15 -20 44
16 -17 17
17 -17 17
18 -17 17
19 -17 17
20 -17 17
21 -20 -45
22 -20 -45
23 -20 -45
24 -20 -45
25 -20 -45
26 -40 12
27 -40 12
28 -40 12
29 -40 12
30 -43 35
31 -43 35
32 -43 35
33 -43 35
34 -43 35
35 -45 0
36 -45 0
37 -45 0
38 -45 0
39 -45 0
40 34 9
41 34 9
42 34 9
43 34 9
44 34 9
45 34 9
46 -2 19
47 -2 19
48 -11 -22
49 -11 -22
50 -11 -22
51 -41 -38
52 -41 -38
53 -41 -38
54 -41 -38
55 -41 -38
56 16 41
57 16 41
58 16 41
59 16 41
60 -37 9
61 -37 9
62 -37 9
63 -37 9
64 -37 9
65 -18 26
66 -18 26
67 -18 26
68 -18 26
69 17 12
70 17 12
71 17 12
72 17 12
73 42 43
74 42 43
75 42 43
76 10 48
77 10 48
78 10 48
79 10 48
80 -6 19
81 -6 19
82 -6 19
83 -6 19
84 -6 19
85 -2 -9
86 -2 -9
87 -2 -9
88 -2 -9
89 -43 -23
90 -43 -23
91 -43 -23
92 -43 -23
93 -43 -11
94 -43 -11
95 -43 -11
96 -43 -11
97 -43 -11
98 28 -31
99 28 -31
100 28 -31
101 -50 -10
102 -50 -10
103 -50 -10
104 -7 29
105 -7 29
106 45 48
107 45 48
108 45 48
109 -26 -12
110 -26 -12
111 -26 -12
112 -26 -12
113 -26 -12
114 -12 14
115 -12 14
116 41 -7
117 41 -7
118 -30 -16
119 -30 -16
120 -30 -16
121 -30 -16
122 -39 -4
123 -39 -4
124 -39 -4
125 -39 -4
126 -6 -23
127 -6 -23
128 -6 -23
129 -6 -23
130 -6 -23
131 -6 -23
132 47 39
133 47 39
134 47 39
135 47 39
136 47 39
137 47 39
138 -22 -13
139 -1 -31
140 -1 -31
141 24 30
142 24 30
143 24 30
144 24 30
145 -15 46
146 -15 46
147 -15 46
148 -15 46
149 9 -47
150 9 -47
151 9 -47
152 -46 47
153 -46 47
154 -46 47
155 -46 47
156 -46 47
157 35 -17
158 35 -17
159 35 -17
160 35 -17
161 -28 43
162 -28 43
163 -28 43
164 -28 43
165 -28 43
166 -28 43
167 -39 -41
168 -39 -41
169 -39 -41
170 -39 -41
171 2 -36
172 2 -36
173 2 -36
174 2 -36
175 -10 -48
176 -10 -48
177 -10 -48
178 -10 -48
179 -10 -48
180 -10 -48
181 -10 -48
182 -12 -21
183 -12 -21
184 -12 -21
185 -12 -21
186 -12 -21
187 11 -35
188 11 -35
189 11 -35
190 11 -35
191 2 13
192 2 13
193 2 13
194 2 13
195 2 13
196 6 -3
197 6 -3
198 6 -3
199 6 -3
200 6 -3
201 -48 34
202 -48 34
203 -48 34
204 -48 34
205 -48 34
206 -48 34
207 43 -9
208 43 -9
209 43 -9
210 43 -9
211 -12 4
212 -12 4
213 -12 4
214 -12 4
215 -50 32
216 -50 32
217 -50 32
218 11 -2
219 11 -2
220 42 -18
221 42 -18
222 3 -39
223 3 -39
224 3 -39
225 3 -39
226 3 -39
227 3 -39
228 -42 -14
229 -42 -14
230 -42 -14
231 -24 36
232 -24 36
233 -24 36
234 20 30
235 20 30
236 20 30
237 21 50
238 21 50
239 15 39
240 15 39
241 15 39
242 15 39
243 15 39
244 -2 -26
245 -2 -26
246 -2 -26
247 -2 -26
248 -2 -26
249 -29 -48
250 -29 -48
251 -29 -48
252 22 43
253 22 43
254 22 43
255 22 43
256 22 43
257 22 43
258 22 43
259 17 -11
260 17 -11
261 17 -11
262 17 -11
263 17 -11
264 24 -25
265 24 -25
266 46 -24
267 46 -24
268 46 -24
269 46 -24
270 46 -24
271 46 -24
272 45 -42
273 45 -42
274 45 -42
275 45 -42
276 45 -42
277 45 -42
278 -22 -34
279 -22 -34
280 -22 -34
281 -22 -34
282 -22 -34
283 -22 -34
284 -33 -50
285 -33 -50
286 -33 -50
287 29 48
288 29 48
289 29 48
290 28 -10
291 28 -10
292 11 17
293 11 17
294 44 19
295 44 19
296 44 19
297 44 19
298 44 19
299 -33 0
300 -33 0
301 -33 0
302 -33 0
DEMAND_SECTION
1 0
2 10
3 1
4 1
5 20
6 20
7 5
8 20
9 20
10 5
11 1
12 1
13 20
14 10
15 1
16 10
17 5
18 1
19 1
20 1
21 20
22 20
23 5
24 1
25 1
26 10
27 1
28 1
29 1
30 20
31 20
32 1
33 1
34 1
35 20
36 10
37 5
38 1
39 1
40 20
41 10
42 5
43 1
44 1
45 1
46 10
47 5
48 20
49 1
50 1
51 20
52 10
53 5
54 1
55 1
56 20
57 1
58 1
59 1
60 20
61 10
62 5
63 1
64 1
65 10
66 5
67 1
68 1
69 20
70 20
71 1
72 1
73 10
74 1
75 1
76 20
77 20
78 5
79 1
80 20
81 10
82 5
83 1
84 1
85 20
86 10
87 1
88 1
89 10
90 5
91 1
92 1
93 10
94 1
95 1
96 1
97 1
98 10
99 1
100 1
101 10
102 1
103 1
104 20
105 10
106 20
107 1
108 1
109 20
110 20
111 5
112 1
113 1
114 20
115 10
116 20
117 5
118 20
119 10
120 1
121 1
122 20
123 20
124 1
125 1
126 20
127 20
128 1
129 1
130 1
131 1
132 20
133 20
134 5
135 1
136 1
137 1
138 20
139 20
140 20
141 20
142 20
143 5
144 1
145 20
146 10
147 1
148 1
149 20
150 20
151 1
152 20
153 10
154 5
155 1
156 1
157 20
158 20
159 1
160 1
161 10
162 5
163 1
164 1
165 1
166 1
167 20
168 10
169 1
170 1
171 20
172 5
173 1
174 1
175 20
176 20
177 5
178 1
179 1
180 1
181 1
182 20
183 20
184 5
185 1
186 1
187 20
188 5
189 1
190 1
191 20
192 10
193 5
194 1
195 1
196 10
197 5
198 1
199 1
200 1
201 20
202 10
203 1
204 1
205 1
206 1
207 20
208 20
209 1
210 1
211 20
212 10
213 5
214 1
215 10
216 5
217 1
218 20
219 10
220 20
221 10
222 20
223 20
224 5
225 1
226 1
227 1
228 10
229 1
230 1
231 20
232 1
233 1
234 10
235 1
236 1
237 20
238 5
239 20
240 20
241 5
242 1
243 1
244 10
245 1
246 1
247 1
248 1
249 20
250 5
251 1
252 20
253 10
254 5
255 1
256 1
257 1
258 1
259 10
260 5
261 1
262 1
263 1
264 20
265 10
266 20
267 20
268 5
269 1
270 1
271 1
272 10
273 5
274 1
275 1
276 1
277 1
278 10
279 5
280 1
281 1
282 1
283 1
284 20
285 1
286 1
287 20
288 1
289 1
290 20
291 10
292 20
293 10
294 20
295 5
296 1
297 1
298 1
299 20
300 20
301 5
302 1
DEPOT_SECTION
1
-1
EOF