Normalized Data/p02_2_normalized_split0.sol
301 -5 4 6 284 285 283 248 249 250 -12 13 14 147 146 144 145 104 103 81 82 -22 20 21 23 24 179 180 176 177 174 175 178 245 247 246 -27 25 28 26 61 63 60 62 59 298 301 300 299 -32 33 31 29 30 202 201 203 200 204 205 216 214 215 -35 38 36 37 34 100 102 101 122 124 123 121 -42 41 44 43 40 39 295 294 297 296 293 3 1 2 68 70 71 -65 64 66 67 232 230 231 162 163 165 164 160 161 154 151 152 155 153 -69 140 141 142 143 251 256 255 252 257 254 -78 75 77 76 236 237 288 286 287 253 -83 79 80 45 46 190 191 192 194 193 -87 85 86 84 198 199 196 197 195 218 217 -95 96 92 94 93 227 229 228 88 89 91 90 51 52 50 54 53 181 -111 110 108 112 109 119 117 120 118 137 -113 114 15 18 17 16 19 211 210 212 213 -115 116 207 208 206 209 290 289 -129 127 128 130 125 126 47 48 49 183 185 184 182 -136 133 134 132 135 131 107 106 105 74 72 73 233 234 235 -158 159 219 220 268 269 267 265 266 270 272 271 274 276 275 273 -166 169 168 167 9 8 10 7 11 278 279 277 282 281 280 -189 188 187 186 150 149 148 226 223 224 222 -225 221 173 171 172 170 139 138 243 244 -242 240 238 239 241 55 56 57 58 291 292 -260 259 258 262 261 156 157 97 99 98 264 263 0 





OBJ=
2334.347
BEST_KNOWN=
0.000